% seed = 1663410

mint = 37;
% maxt = 124;

nActs = 22;
dur = [0,8,2,2,9,3,9,3,8,2,9,9,8,8,4,8,4,3,9,8,8,0];

nSkills = 4;
sreq = [| 0,0,0,0,
	| 1,2,0,0,
	| 3,1,0,0,
	| 2,0,0,2,
	| 1,0,2,0,
	| 0,1,0,1,
	| 0,3,1,0,
	| 0,1,0,3,
	| 0,0,3,2,
	| 2,3,0,0,
	| 1,0,1,0,
	| 2,0,3,0,
	| 0,3,0,3,
	| 0,1,0,2,
	| 2,0,0,2,
	| 2,0,3,0,
	| 0,1,3,0,
	| 2,3,0,0,
	| 0,1,1,0,
	| 3,0,0,1,
	| 3,0,0,3,
	| 0,0,0,0, |];

nResources = 13;
mastery = [| false,false,true,false,
	| true,false,true,false,
	| true,false,true,true,
	| false,false,true,true,
	| true,true,false,true,
	| false,false,true,true,
	| false,true,false,true,
	| false,true,false,true,
	| true,false,true,false,
	| true,true,false,false,
	| false,true,false,false,
	| false,false,false,true,
	| false,true,true,true, |];

nPrecs = 37;
pred = [1,1,1,2,2,2,3,3,3,4,4,5,5,6,6,7,7,8,8,8,9,10,10,11,11,11,12,13,13,14,15,16,17,18,19,20,21];
succ = [2,3,4,17,11,7,5,7,15,11,7,6,8,10,14,10,14,9,12,21,18,12,13,13,14,16,19,19,21,21,20,20,18,19,22,22,22];

nUnrels = 106;
unpred = [2,2,2,2,2,2,2,3,3,3,3,4,4,4,4,4,4,4,5,5,5,5,5,5,6,6,6,6,6,6,6,6,6,7,7,7,7,7,7,7,7,8,8,8,8,8,8,8,8,9,9,9,9,9,9,9,9,9,9,10,10,10,10,10,10,10,11,11,11,11,12,12,12,12,12,12,12,12,13,13,13,13,13,13,14,14,14,14,14,14,15,15,15,15,15,16,16,16,16,17,17,18,18,19,19,20];
unsucc = [3,4,5,6,8,9,15,4,11,16,17,5,6,8,9,15,17,18,7,11,15,16,17,20,7,8,9,11,15,16,17,18,20,8,9,11,15,16,17,18,20,10,11,13,14,15,16,17,20,10,11,12,13,14,15,16,17,20,21,11,14,15,16,17,18,20,12,15,17,18,13,14,15,16,17,18,20,21,14,15,16,17,18,20,15,16,17,18,19,20,16,17,18,19,21,17,18,19,21,20,21,20,21,20,21,21];

USEFUL_RES = [{},
	{2,3,5,7,8,9,10,11,13},
	{2,3,5,7,8,9,10,11,13},
	{2,3,4,5,6,7,8,9,10,12,13},
	{1,2,3,4,5,6,9,10,13},
	{3,4,5,6,7,8,10,11,12,13},
	{1,2,3,4,5,6,7,8,9,10,11,13},
	{3,4,5,6,7,8,10,11,12,13},
	{1,2,3,4,5,6,7,8,9,12,13},
	{2,3,5,7,8,9,10,11,13},
	{1,2,3,4,5,6,9,10,13},
	{1,2,3,4,5,6,9,10,13},
	{3,4,5,6,7,8,10,11,12,13},
	{3,4,5,6,7,8,10,11,12,13},
	{2,3,4,5,6,7,8,9,10,12,13},
	{1,2,3,4,5,6,9,10,13},
	{1,2,3,4,5,6,7,8,9,10,11,13},
	{2,3,5,7,8,9,10,11,13},
	{1,2,3,4,5,6,7,8,9,10,11,13},
	{2,3,4,5,6,7,8,9,10,12,13},
	{2,3,4,5,6,7,8,9,10,12,13},
	{}];

POTENTIAL_ACT = [{5,7,9,11,12,16,17,19},
	{2,3,4,5,7,9,10,11,12,15,16,17,18,19,20,21},
	{2,3,4,5,6,7,8,9,10,11,12,13,14,15,16,17,18,19,20,21},
	{4,5,6,7,8,9,11,12,13,14,15,16,17,19,20,21},
	{2,3,4,5,6,7,8,9,10,11,12,13,14,15,16,17,18,19,20,21},
	{4,5,6,7,8,9,11,12,13,14,15,16,17,19,20,21},
	{2,3,4,6,7,8,9,10,13,14,15,17,18,19,20,21},
	{2,3,4,6,7,8,9,10,13,14,15,17,18,19,20,21},
	{2,3,4,5,7,9,10,11,12,15,16,17,18,19,20,21},
	{2,3,4,5,6,7,8,10,11,12,13,14,15,16,17,18,19,20,21},
	{2,3,6,7,8,10,13,14,17,18,19},
	{4,6,8,9,13,14,15,20,21},
	{2,3,4,5,6,7,8,9,10,11,12,13,14,15,16,17,18,19,20,21}];
